NAME : weird20
COMMENT : Algorithm Random(+2opt)
COMMENT : Length 439 
COMMENT : Elapsed time 0.000013 seconds
TYPE : TOUR
DIMENSION : 20
TOUR_SECTION
20
8
14
1
16
10
5
3
17
13
11
19
7
15
9
4
18
12
2
6
20
EOF
